49
1 0 36
2 0 7
2 1 13
3 0 13
3 1 15
3 2 28
4 0 39
4 1 27
4 2 7
4 3 14
5 0 23
5 1 18
5 2 21
5 3 26
5 4 30
6 0 14
6 1 33
6 2 2
6 3 30
6 4 26
6 5 27
7 0 20
7 1 30
7 2 27
7 3 36
7 4 25
7 5 37
7 6 15
8 0 17
8 1 24
8 2 15
8 3 33
8 4 30
8 5 23
8 6 18
8 7 17
9 0 32
9 1 4
9 2 20
9 3 13
9 4 38
9 5 16
9 6 18
9 7 2
9 8 30
10 0 23
10 1 32
10 2 19
10 3 30
10 4 4
10 5 33
10 6 2
10 7 9
10 8 36
10 9 26
11 0 39
11 1 30
11 2 23
11 3 24
11 4 27
11 5 37
11 6 33
11 7 36
11 8 15
11 9 1
11 10 15
12 0 30
12 1 12
12 2 27
12 3 15
12 4 10
12 5 28
12 6 22
12 7 13
12 8 28
12 9 28
12 10 11
12 11 23
13 0 18
13 1 8
13 2 4
13 3 32
13 4 39
13 5 21
13 6 7
13 7 30
13 8 9
13 9 2
13 10 11
13 11 28
13 12 36
14 0 10
14 1 21
14 2 34
14 3 38
14 4 1
14 5 10
14 6 38
14 7 1
14 8 1
14 9 6
14 10 29
14 11 3
14 12 16
14 13 18
15 0 36
15 1 29
15 2 13
15 3 27
15 4 11
15 5 5
15 6 34
15 7 3
15 8 9
15 9 1
15 10 21
15 11 36
15 12 25
15 13 27
15 14 14
16 0 20
16 1 23
16 2 29
16 3 1
16 4 5
16 5 8
16 6 4
16 7 1
16 8 18
16 9 34
16 10 14
16 11 14
16 12 19
16 13 19
16 14 22
16 15 15
17 0 12
17 1 14
17 2 15
17 3 2
17 4 35
17 5 8
17 6 17
17 7 9
17 8 29
17 9 7
17 10 37
17 11 12
17 12 16
17 13 34
17 14 38
17 15 34
17 16 36
18 0 31
18 1 10
18 2 16
18 3 13
18 4 29
18 5 37
18 6 9
18 7 37
18 8 38
18 9 5
18 10 3
18 11 39
18 12 12
18 13 31
18 14 7
18 15 25
18 16 17
18 17 18
19 0 18
19 1 35
19 2 1
19 3 36
19 4 26
19 5 26
19 6 13
19 7 29
19 8 1
19 9 32
19 10 28
19 11 9
19 12 7
19 13 8
19 14 6
19 15 15
19 16 9
19 17 8
19 18 6
20 0 31
20 1 3
20 2 30
20 3 21
20 4 15
20 5 36
20 6 16
20 7 11
20 8 38
20 9 38
20 10 17
20 11 27
20 12 20
20 13 30
20 14 16
20 15 25
20 16 25
20 17 10
20 18 24
20 19 15
21 0 39
21 1 5
21 2 8
21 3 18
21 4 23
21 5 27
21 6 34
21 7 27
21 8 27
21 9 2
21 10 29
21 11 37
21 12 13
21 13 33
21 14 19
21 15 20
21 16 25
21 17 36
21 18 28
21 19 9
21 20 2
22 0 33
22 1 35
22 2 22
22 3 17
22 4 35
22 5 18
22 6 17
22 7 29
22 8 1
22 9 5
22 10 9
22 11 23
22 12 8
22 13 3
22 14 25
22 15 29
22 16 27
22 17 36
22 18 39
22 19 31
22 20 9
22 21 28
23 0 23
23 1 9
23 2 31
23 3 31
23 4 21
23 5 21
23 6 15
23 7 27
23 8 25
23 9 16
23 10 35
23 11 38
23 12 21
23 13 5
23 14 27
23 15 5
23 16 13
23 17 14
23 18 1
23 19 9
23 20 6
23 21 10
23 22 16
24 0 9
24 1 3
24 2 25
24 3 23
24 4 18
24 5 12
24 6 10
24 7 7
24 8 7
24 9 29
24 10 34
24 11 12
24 12 8
24 13 9
24 14 15
24 15 9
24 16 28
24 17 1
24 18 19
24 19 16
24 20 4
24 21 11
24 22 4
24 23 4
25 0 6
25 1 37
25 2 38
25 3 21
25 4 3
25 5 35
25 6 16
25 7 17
25 8 8
25 9 8
25 10 8
25 11 2
25 12 15
25 13 22
25 14 4
25 15 15
25 16 8
25 17 13
25 18 34
25 19 3
25 20 27
25 21 11
25 22 39
25 23 1
25 24 11
26 0 37
26 1 20
26 2 36
26 3 34
26 4 35
26 5 11
26 6 9
26 7 25
26 8 34
26 9 14
26 10 6
26 11 23
26 12 32
26 13 24
26 14 28
26 15 4
26 16 3
26 17 33
26 18 5
26 19 3
26 20 28
26 21 17
26 22 26
26 23 22
26 24 31
26 25 36
27 0 10
27 1 13
27 2 24
27 3 8
27 4 7
27 5 25
27 6 11
27 7 2
27 8 22
27 9 22
27 10 39
27 11 19
27 12 25
27 13 24
27 14 25
27 15 38
27 16 2
27 17 8
27 18 7
27 19 13
27 20 28
27 21 4
27 22 23
27 23 8
27 24 17
27 25 1
27 26 31
28 0 9
28 1 10
28 2 9
28 3 7
28 4 12
28 5 20
28 6 39
28 7 20
28 8 19
28 9 4
28 10 25
28 11 10
28 12 30
28 13 39
28 14 39
28 15 32
28 16 9
28 17 13
28 18 31
28 19 2
28 20 32
28 21 3
28 22 14
28 23 7
28 24 24
28 25 32
28 26 11
28 27 25
29 0 33
29 1 14
29 2 18
29 3 6
29 4 37
29 5 3
29 6 12
29 7 12
29 8 23
29 9 14
29 10 37
29 11 34
29 12 33
29 13 14
29 14 7
29 15 27
29 16 38
29 17 30
29 18 39
29 19 19
29 20 10
29 21 5
29 22 7
29 23 11
29 24 39
29 25 35
29 26 11
29 27 4
29 28 26
30 0 31
30 1 4
30 2 11
30 3 33
30 4 2
30 5 39
30 6 18
30 7 3
30 8 30
30 9 15
30 10 35
30 11 11
30 12 9
30 13 21
30 14 8
30 15 6
30 16 31
30 17 39
30 18 6
30 19 17
30 20 12
30 21 8
30 22 5
30 23 11
30 24 21
30 25 28
30 26 38
30 27 13
30 28 7
30 29 26
31 0 22
31 1 23
31 2 26
31 3 6
31 4 33
31 5 17
31 6 32
31 7 17
31 8 39
31 9 37
31 10 35
31 11 15
31 12 33
31 13 22
31 14 21
31 15 34
31 16 39
31 17 4
31 18 29
31 19 9
31 20 2
31 21 32
31 22 9
31 23 24
31 24 39
31 25 25
31 26 9
31 27 37
31 28 17
31 29 7
31 30 28
32 0 8
32 1 23
32 2 38
32 3 2
32 4 32
32 5 5
32 6 29
32 7 3
32 8 6
32 9 32
32 10 11
32 11 5
32 12 8
32 13 9
32 14 30
32 15 39
32 16 18
32 17 25
32 18 25
32 19 7
32 20 6
32 21 34
32 22 22
32 23 14
32 24 12
32 25 25
32 26 35
32 27 36
32 28 28
32 29 32
32 30 36
32 31 25
33 0 13
33 1 33
33 2 22
33 3 13
33 4 37
33 5 22
33 6 14
33 7 23
33 8 2
33 9 32
33 10 35
33 11 14
33 12 11
33 13 21
33 14 10
33 15 27
33 16 33
33 17 31
33 18 30
33 19 32
33 20 30
33 21 10
33 22 16
33 23 37
33 24 3
33 25 4
33 26 20
33 27 27
33 28 30
33 29 12
33 30 26
33 31 21
33 32 35
34 0 27
34 1 39
34 2 25
34 3 15
34 4 12
34 5 3
34 6 26
34 7 1
34 8 36
34 9 15
34 10 34
34 11 12
34 12 33
34 13 34
34 14 9
34 15 10
34 16 15
34 17 3
34 18 13
34 19 21
34 20 8
34 21 2
34 22 32
34 23 2
34 24 39
34 25 22
34 26 4
34 27 18
34 28 5
34 29 39
34 30 23
34 31 27
34 32 17
34 33 14
35 0 7
35 1 32
35 2 19
35 3 19
35 4 9
35 5 24
35 6 10
35 7 27
35 8 21
35 9 36
35 10 36
35 11 28
35 12 36
35 13 13
35 14 32
35 15 22
35 16 18
35 17 37
35 18 9
35 19 33
35 20 23
35 21 18
35 22 32
35 23 13
35 24 12
35 25 13
35 26 34
35 27 18
35 28 30
35 29 13
35 30 17
35 31 32
35 32 11
35 33 9
35 34 13
36 0 24
36 1 39
36 2 32
36 3 14
36 4 32
36 5 33
36 6 12
36 7 17
36 8 32
36 9 37
36 10 28
36 11 8
36 12 3
36 13 9
36 14 10
36 15 19
36 16 19
36 17 26
36 18 5
36 19 33
36 20 38
36 21 11
36 22 33
36 23 21
36 24 16
36 25 37
36 26 26
36 27 10
36 28 17
36 29 26
36 30 30
36 31 9
36 32 26
36 33 29
36 34 23
36 35 8
37 0 19
37 1 10
37 2 33
37 3 2
37 4 28
37 5 18
37 6 28
37 7 16
37 8 7
37 9 39
37 10 2
37 11 1
37 12 23
37 13 23
37 14 12
37 15 22
37 16 8
37 17 36
37 18 39
37 19 30
37 20 19
37 21 6
37 22 23
37 23 34
37 24 26
37 25 18
37 26 8
37 27 1
37 28 24
37 29 10
37 30 21
37 31 19
37 32 32
37 33 8
37 34 32
37 35 24
37 36 4
38 0 31
38 1 38
38 2 10
38 3 27
38 4 30
38 5 39
38 6 30
38 7 14
38 8 3
38 9 7
38 10 25
38 11 34
38 12 9
38 13 39
38 14 37
38 15 16
38 16 22
38 17 28
38 18 30
38 19 3
38 20 19
38 21 29
38 22 6
38 23 33
38 24 27
38 25 24
38 26 26
38 27 34
38 28 10
38 29 1
38 30 14
38 31 24
38 32 24
38 33 6
38 34 27
38 35 15
38 36 8
38 37 19
39 0 32
39 1 12
39 2 8
39 3 25
39 4 7
39 5 29
39 6 18
39 7 36
39 8 16
39 9 23
39 10 33
39 11 34
39 12 5
39 13 39
39 14 12
39 15 21
39 16 26
39 17 35
39 18 23
39 19 30
39 20 8
39 21 19
39 22 14
39 23 18
39 24 38
39 25 12
39 26 2
39 27 20
39 28 36
39 29 21
39 30 32
39 31 7
39 32 22
39 33 34
39 34 20
39 35 32
39 36 31
39 37 3
39 38 10
40 0 14
40 1 20
40 2 28
40 3 6
40 4 36
40 5 37
40 6 9
40 7 19
40 8 20
40 9 20
40 10 38
40 11 5
40 12 22
40 13 29
40 14 29
40 15 38
40 16 38
40 17 32
40 18 19
40 19 33
40 20 25
40 21 22
40 22 31
40 23 8
40 24 32
40 25 33
40 26 1
40 27 13
40 28 34
40 29 33
40 30 11
40 31 34
40 32 3
40 33 35
40 34 21
40 35 15
40 36 14
40 37 11
40 38 22
40 39 26
41 0 34
41 1 28
41 2 31
41 3 7
41 4 35
41 5 6
41 6 31
41 7 5
41 8 35
41 9 3
41 10 9
41 11 23
41 12 3
41 13 33
41 14 25
41 15 6
41 16 30
41 17 2
41 18 2
41 19 27
41 20 23
41 21 22
41 22 23
41 23 9
41 24 24
41 25 21
41 26 16
41 27 11
41 28 37
41 29 12
41 30 23
41 31 29
41 32 31
41 33 17
41 34 3
41 35 23
41 36 21
41 37 30
41 38 15
41 39 28
41 40 29
42 0 34
42 1 5
42 2 29
42 3 38
42 4 27
42 5 6
42 6 27
42 7 28
42 8 16
42 9 3
42 10 26
42 11 37
42 12 9
42 13 28
42 14 7
42 15 3
42 16 1
42 17 1
42 18 25
42 19 16
42 20 21
42 21 11
42 22 2
42 23 7
42 24 5
42 25 10
42 26 7
42 27 36
42 28 22
42 29 23
42 30 22
42 31 31
42 32 18
42 33 32
42 34 36
42 35 30
42 36 38
42 37 22
42 38 18
42 39 15
42 40 39
42 41 30
43 0 20
43 1 38
43 2 8
43 3 19
43 4 23
43 5 27
43 6 23
43 7 1
43 8 15
43 9 1
43 10 36
43 11 24
43 12 18
43 13 6
43 14 31
43 15 7
43 16 3
43 17 30
43 18 8
43 19 17
43 20 23
43 21 33
43 22 15
43 23 34
43 24 39
43 25 32
43 26 21
43 27 1
43 28 27
43 29 2
43 30 37
43 31 39
43 32 27
43 33 8
43 34 12
43 35 20
43 36 20
43 37 17
43 38 14
43 39 26
43 40 33
43 41 14
43 42 1
44 0 13
44 1 25
44 2 34
44 3 3
44 4 27
44 5 29
44 6 25
44 7 14
44 8 21
44 9 2
44 10 31
44 11 24
44 12 8
44 13 8
44 14 2
44 15 20
44 16 10
44 17 17
44 18 13
44 19 27
44 20 23
44 21 7
44 22 17
44 23 31
44 24 35
44 25 13
44 26 31
44 27 17
44 28 20
44 29 32
44 30 35
44 31 12
44 32 18
44 33 3
44 34 2
44 35 15
44 36 15
44 37 7
44 38 28
44 39 26
44 40 32
44 41 21
44 42 13
44 43 28
45 0 33
45 1 17
45 2 26
45 3 13
45 4 5
45 5 28
45 6 30
45 7 38
45 8 29
45 9 21
45 10 16
45 11 22
45 12 31
45 13 38
45 14 13
45 15 4
45 16 39
45 17 27
45 18 26
45 19 39
45 20 4
45 21 13
45 22 29
45 23 5
45 24 5
45 25 1
45 26 17
45 27 4
45 28 6
45 29 12
45 30 24
45 31 39
45 32 25
45 33 8
45 34 27
45 35 39
45 36 11
45 37 26
45 38 20
45 39 4
45 40 36
45 41 5
45 42 15
45 43 14
45 44 6
46 0 39
46 1 15
46 2 1
46 3 8
46 4 29
46 5 38
46 6 22
46 7 1
46 8 7
46 9 33
46 10 32
46 11 33
46 12 34
46 13 3
46 14 36
46 15 37
46 16 10
46 17 31
46 18 26
46 19 31
46 20 38
46 21 30
46 22 4
46 23 39
46 24 26
46 25 38
46 26 3
46 27 17
46 28 7
46 29 32
46 30 32
46 31 11
46 32 32
46 33 29
46 34 10
46 35 17
46 36 6
46 37 35
46 38 26
46 39 11
46 40 28
46 41 37
46 42 8
46 43 3
46 44 8
46 45 19
47 0 39
47 1 34
47 2 12
47 3 35
47 4 1
47 5 24
47 6 9
47 7 28
47 8 6
47 9 23
47 10 24
47 11 18
47 12 29
47 13 1
47 14 2
47 15 5
47 16 30
47 17 23
47 18 29
47 19 8
47 20 22
47 21 35
47 22 9
47 23 7
47 24 14
47 25 36
47 26 22
47 27 30
47 28 21
47 29 29
47 30 27
47 31 28
47 32 34
47 33 19
47 34 12
47 35 12
47 36 21
47 37 4
47 38 27
47 39 10
47 40 24
47 41 10
47 42 37
47 43 35
47 44 37
47 45 23
47 46 11
48 0 7
48 1 12
48 2 10
48 3 11
48 4 16
48 5 19
48 6 15
48 7 23
48 8 25
48 9 12
48 10 27
48 11 1
48 12 2
48 13 22
48 14 25
48 15 15
48 16 25
48 17 36
48 18 36
48 19 15
48 20 16
48 21 3
48 22 28
48 23 14
48 24 23
48 25 3
48 26 25
48 27 32
48 28 15
48 29 28
48 30 33
48 31 33
48 32 1
48 33 35
48 34 30
48 35 8
48 36 10
48 37 19
48 38 32
48 39 9
48 40 1
48 41 33
48 42 21
48 43 8
48 44 38
48 45 32
48 46 11
48 47 27
